(set-logic QF_S)
(declare-fun var0 () String)
(declare-fun var1 () Int)
(declare-fun var2 () Bool)
(declare-fun var3 () String)
(declare-fun var4 () Int)
(declare-fun var5 () Bool)
(declare-fun var6 () String)
(declare-fun var7 () Int)
(declare-fun var8 () Bool)
(assert (str.in.re (str.substr var3 var7 var4) (re.* re.allchar)))
(assert (< (str.len (str.replace var3 var3 var3)) (str.indexof var6 var3 4)))
(assert (not (> var4 var7)))
(assert (> (str.indexof var0 var6 var4) (str.len var6)))
(check-sat)